# Solution for model count
# Objective value = 10
z#1 0
z#2 1
z#3 1
z#4 1
z#5 0
z#6 0
z#7 1
z#8 1
z#9 0
z#10 1
z#11 1
z#12 1
z#13 1
z#14 0
z#15 0
z#16 0
z#17 0
z#18 0
z#19 0
z#20 0
z#21 0
z#22 0
z#23 0
z#24 1
x#24 1573
x#23 0
x#22 0
x#21 0
x#20 0
x#19 0
x#18 0
x#17 0
x#16 0
x#15 0
x#14 0
x#13 3052
x#12 34
x#11 559
x#10 954
x#9 0
x#8 125
x#7 641
x#6 0
x#5 0
x#4 88
x#3 2763
x#2 211
x#1 0
